c b=8,c=1025
p cnf 26 34
8 -16 0
8 -26 0
-8 16 0
-8 26 0
7 -15 0
7 -25 0
-7 15 0
-7 25 0
6 -14 0
6 -24 0
-6 14 0
-6 24 0
5 -13 0
5 -23 0
-5 13 0
-5 23 0
4 -12 0
4 -22 0
-4 12 0
-4 22 0
3 -11 0
3 -21 0
-3 11 0
-3 21 0
2 -10 0
2 -20 0
-2 10 0
-2 20 0
1 -9 0
1 -19 0
-1 9 0
-1 19 0
-17 0
-18 0
